
Gurobi 9.0.1 (win64) logging started 11/11/21 13:38:04

Changed value of parameter LogFile to ../results/logs/log_samuel_kroger_2021_11_11_13_38_03.csv_15_5.log
   Prev:   Default: 
Changed value of parameter method to 3
   Prev: -1  Min: -1  Max: 5  Default: -1
Gurobi Optimizer version 9.0.1 build v9.0.1rc0 (win64)
Optimize a model with 6319 rows, 46266 columns and 205991 nonzeros
Model fingerprint: 0x869cfdf8
Variable types: 23133 continuous, 23133 integer (23133 binary)
Coefficient statistics:
  Matrix range     [1e+00, 2e+01]
  Objective range  [1e+00, 1e+00]
  Bounds range     [1e+00, 1e+00]
  RHS range        [1e+00, 5e+00]
Found heuristic solution: objective -0.0000000
Presolve removed 2463 rows and 39524 columns
Presolve time: 0.46s
Presolved: 3856 rows, 6742 columns, 94975 nonzeros
Variable types: 4809 continuous, 1933 integer (1933 binary)

Concurrent LP optimizer: dual simplex and barrier
Showing barrier log only...

Root barrier log...

Ordering time: 0.25s

Barrier statistics:
 Dense cols : 16
 AA' NZ     : 2.279e+05
 Factor NZ  : 1.268e+06 (roughly 15 MBytes of memory)
 Factor Ops : 1.126e+09 (less than 1 second per iteration)
 Threads    : 3

                  Objective                Residual
Iter       Primal          Dual         Primal    Dual     Compl     Time
   0   5.25663197e+03  8.51862309e+02  9.23e+03 1.00e+00  2.38e+00     1s
   1   4.02060186e+03  1.91233842e+03  5.57e+03 7.50e-01  1.40e+00     1s
   2   2.08970964e+03  2.84646775e+03  1.54e+03 7.02e-02  4.17e-01     1s
   3   1.55788439e+03  1.84675738e+03  1.47e+02 3.57e-03  4.78e-02     1s
   4   1.50927470e+03  1.55903039e+03  3.65e+01 5.15e-04  1.15e-02     1s
   5   1.49273172e+03  1.51698843e+03  1.32e+01 3.15e-04  4.91e-03     1s
   6   1.48758650e+03  1.50223831e+03  8.74e+00 2.13e-04  3.35e-03     1s
   7   1.48353435e+03  1.49043083e+03  6.09e+00 1.21e-04  2.25e-03     1s
   8   1.47982563e+03  1.48261716e+03  4.35e+00 7.72e-05  1.50e-03     1s
   9   1.47843894e+03  1.48080060e+03  3.80e+00 6.47e-05  1.28e-03     1s
  10   1.47665410e+03  1.47668155e+03  3.02e+00 4.54e-05  9.64e-04     1s
  11   1.47470704e+03  1.47361150e+03  2.36e+00 3.11e-05  7.18e-04     1s
  12   1.46872198e+03  1.47020457e+03  5.22e-01 1.44e-05  2.63e-04     1s
  13   1.46768322e+03  1.46891103e+03  2.19e-01 8.22e-06  1.46e-04     1s
  14   1.46738321e+03  1.46754640e+03  1.15e-01 2.09e-06  4.82e-05     1s
  15   1.46707043e+03  1.46713128e+03  2.77e-03 2.64e-07  4.56e-06     1s
  16   1.46706482e+03  1.46710049e+03  6.74e-05 1.63e-07  2.17e-06     2s
  17   1.46706604e+03  1.46706661e+03  2.00e-14 3.57e-15  3.29e-08     2s
  18   1.46706642e+03  1.46706643e+03  1.33e-10 8.44e-15  3.19e-10     2s

Barrier solved model in 18 iterations and 1.58 seconds
Optimal objective 1.46706642e+03


Solved with barrier

Root relaxation: objective 1.467066e+03, 72 iterations, 1.17 seconds

    Nodes    |    Current Node    |     Objective Bounds      |     Work
 Expl Unexpl |  Obj  Depth IntInf | Incumbent    BestBd   Gap | It/Node Time

     0     0 1467.06643    0 1141   -0.00000 1467.06643      -     -    1s
     0     0  962.62136    0  861   -0.00000  962.62136      -     -    4s
     0     0  798.03730    0  735   -0.00000  798.03730      -     -    4s
     0     0  789.31124    0  728   -0.00000  789.31124      -     -    4s
     0     0  787.44791    0  715   -0.00000  787.44791      -     -    5s
     0     0  787.27680    0  671   -0.00000  787.27680      -     -    5s
     0     0  682.89225    0  730   -0.00000  682.89225      -     -    5s
     0     0  651.12286    0  878   -0.00000  651.12286      -     -    6s
     0     0  644.39498    0  831   -0.00000  644.39498      -     -    6s
     0     0  641.93220    0  850   -0.00000  641.93220      -     -    6s
     0     0  641.58404    0  811   -0.00000  641.58404      -     -    6s
     0     0  607.87897    0  919   -0.00000  607.87897      -     -    8s
     0     0  586.43105    0  905   -0.00000  586.43105      -     -    9s
     0     0  577.96047    0  964   -0.00000  577.96047      -     -    9s
     0     0  571.77398    0 1007   -0.00000  571.77398      -     -   10s
     0     0  568.42134    0  936   -0.00000  568.42134      -     -   10s
     0     0  566.71271    0 1069   -0.00000  566.71271      -     -   11s
     0     0  565.67842    0 1085   -0.00000  565.67842      -     -   11s
     0     0  565.19112    0 1093   -0.00000  565.19112      -     -   11s
     0     0  551.47131    0 1011   -0.00000  551.47131      -     -   14s
     0     0  543.64295    0 1038   -0.00000  543.64295      -     -   15s
     0     0  539.35413    0 1120   -0.00000  539.35413      -     -   15s
     0     0  536.59001    0 1068   -0.00000  536.59001      -     -   16s
     0     0  534.73693    0 1144   -0.00000  534.73693      -     -   16s
     0     0  532.05937    0 1109   -0.00000  532.05937      -     -   17s
     0     0  531.04891    0 1154   -0.00000  531.04891      -     -   18s
     0     0  530.22472    0 1186   -0.00000  530.22472      -     -   18s
     0     0  525.99095    0 1149   -0.00000  525.99095      -     -   19s
H    0     0                     342.0000000  525.99095  53.8%     -   22s
H    0     0                     344.0000000  525.99095  52.9%     -   22s
     0     0  524.32678    0 1158  344.00000  524.32678  52.4%     -   22s
     0     0  521.85669    0 1185  344.00000  521.85669  51.7%     -   22s
     0     0  520.43829    0 1211  344.00000  520.43829  51.3%     -   23s
     0     0  519.72311    0 1216  344.00000  519.72311  51.1%     -   24s
     0     0  517.81619    0 1188  344.00000  517.81619  50.5%     -   25s
     0     0  517.81619    0 1187  344.00000  517.81619  50.5%     -   26s
     0     2  517.81619    0 1187  344.00000  517.81619  50.5%     -   28s
     3     4  516.12676    2 1184  344.00000  516.45803  50.1%   802   30s
    15    16  512.67775    4 1244  344.00000  512.67775  49.0%  2193   36s
    28    27  489.86124    7 1249  344.00000  512.67439  49.0%  1668   42s
    32    31  506.95733    7 1191  344.00000  512.67439  49.0%  1559   50s
    41    43  505.50106    9 1211  344.00000  512.67439  49.0%  1347   57s
    53    49  504.19350   11 1148  344.00000  512.67439  49.0%  1417   60s
    71    67  502.28312   16 1177  344.00000  512.67439  49.0%  1269   67s
    86    78  499.12367   18 1172  344.00000  512.67439  49.0%  1211   72s
   102    98  497.34267   23 1169  344.00000  512.67439  49.0%  1156   75s
   113   103     cutoff   25       344.00000  512.67439  49.0%  1161   81s
   147   133  492.80034   32 1118  344.00000  512.67439  49.0%  1000   87s
   165   163  493.83195   34 1183  344.00000  512.67439  49.0%   963   91s
   190   193  491.80607   42 1170  344.00000  512.67439  49.0%   893   95s
   226   237  490.47993   52 1166  344.00000  512.67439  49.0%   813  104s
   256   262  487.72262   58 1145  344.00000  512.67439  49.0%   779  106s
   311   296  485.98777   64 1137  344.00000  512.67439  49.0%   688  113s
   319   318     cutoff   67       344.00000  512.67439  49.0%   692  116s
   367   382  483.07296   73 1090  344.00000  512.67439  49.0%   653  121s
   436   446  480.84930   87 1050  344.00000  512.67439  49.0%   598  127s
   479   462  457.53302  103  589  344.00000  512.67439  49.0%   575  130s
   497   493  478.40079  104  954  344.00000  512.67439  49.0%   572  136s
   548   530  476.80717  122  966  344.00000  512.67439  49.0%   567  143s
   571   569  475.83798  130  987  344.00000  512.67439  49.0%   568  146s
   612   590  474.13557  139 1023  344.00000  512.67439  49.0%   552  150s
   696   692  471.03560  156 1011  344.00000  512.67439  49.0%   522  158s
